c Modular CNF with 4 modules
c Generated CNF instance
p cnf 40 640
6 5 1 0
6 5 -1 0
6 -5 1 0
-6 5 1 0
7 3 8 0
7 3 -8 0
7 -3 8 0
-7 3 8 0
7 8 5 0
7 8 -5 0
7 -8 5 0
-7 8 5 0
3 2 8 0
3 2 -8 0
3 -2 8 0
-3 2 8 0
5 7 2 0
5 7 -2 0
5 -7 2 0
-5 7 2 0
6 4 2 0
6 4 -2 0
6 -4 2 0
-6 4 2 0
7 6 8 0
7 6 -8 0
7 -6 8 0
-7 6 8 0
1 8 3 0
1 8 -3 0
1 -8 3 0
-1 8 3 0
9 1 5 0
9 1 -5 0
9 -1 5 0
-9 1 5 0
9 10 3 0
9 10 -3 0
9 -10 3 0
-9 10 3 0
2 5 8 0
2 5 -8 0
2 -5 8 0
-2 5 8 0
4 5 8 0
4 5 -8 0
4 -5 8 0
-4 5 8 0
3 8 2 0
3 8 -2 0
3 -8 2 0
-3 8 2 0
3 7 4 0
3 7 -4 0
3 -7 4 0
-3 7 4 0
5 10 3 0
5 10 -3 0
5 -10 3 0
-5 10 3 0
2 9 8 0
2 9 -8 0
2 -9 8 0
-2 9 8 0
7 1 3 0
7 1 -3 0
7 -1 3 0
-7 1 3 0
3 6 10 0
3 6 -10 0
3 -6 10 0
-3 6 10 0
3 10 6 0
3 10 -6 0
3 -10 6 0
-3 10 6 0
3 1 4 0
3 1 -4 0
3 -1 4 0
-3 1 4 0
5 9 10 0
5 9 -10 0
5 -9 10 0
-5 9 10 0
10 4 5 0
10 4 -5 0
10 -4 5 0
-10 4 5 0
1 5 8 0
1 5 -8 0
1 -5 8 0
-1 5 8 0
2 4 9 0
2 4 -9 0
2 -4 9 0
-2 4 9 0
5 3 9 0
5 3 -9 0
5 -3 9 0
-5 3 9 0
3 8 9 0
3 8 -9 0
3 -8 9 0
-3 8 9 0
5 8 6 0
5 8 -6 0
5 -8 6 0
-5 8 6 0
3 6 8 0
3 6 -8 0
3 -6 8 0
-3 6 8 0
1 8 2 0
1 8 -2 0
1 -8 2 0
-1 8 2 0
2 10 3 0
2 10 -3 0
2 -10 3 0
-2 10 3 0
5 4 1 0
5 4 -1 0
5 -4 1 0
-5 4 1 0
9 10 7 0
9 10 -7 0
9 -10 7 0
-9 10 7 0
6 9 4 0
6 9 -4 0
6 -9 4 0
-6 9 4 0
4 3 6 0
4 3 -6 0
4 -3 6 0
-4 3 6 0
6 8 3 0
6 8 -3 0
6 -8 3 0
-6 8 3 0
8 9 3 0
8 9 -3 0
8 -9 3 0
-8 9 3 0
8 10 3 0
8 10 -3 0
8 -10 3 0
-8 10 3 0
1 3 6 0
1 3 -6 0
1 -3 6 0
-1 3 6 0
3 7 4 0
3 7 -4 0
3 -7 4 0
-3 7 4 0
2 6 5 0
2 6 -5 0
2 -6 5 0
-2 6 5 0
16 12 19 0
16 12 -19 0
16 -12 19 0
-16 12 19 0
20 19 17 0
20 19 -17 0
20 -19 17 0
-20 19 17 0
20 19 16 0
20 19 -16 0
20 -19 16 0
-20 19 16 0
11 12 13 0
11 12 -13 0
11 -12 13 0
-11 12 13 0
16 15 13 0
16 15 -13 0
16 -15 13 0
-16 15 13 0
18 11 17 0
18 11 -17 0
18 -11 17 0
-18 11 17 0
20 12 17 0
20 12 -17 0
20 -12 17 0
-20 12 17 0
11 13 15 0
11 13 -15 0
11 -13 15 0
-11 13 15 0
15 19 16 0
15 19 -16 0
15 -19 16 0
-15 19 16 0
13 16 15 0
13 16 -15 0
13 -16 15 0
-13 16 15 0
14 13 17 0
14 13 -17 0
14 -13 17 0
-14 13 17 0
11 12 14 0
11 12 -14 0
11 -12 14 0
-11 12 14 0
17 18 15 0
17 18 -15 0
17 -18 15 0
-17 18 15 0
19 15 16 0
19 15 -16 0
19 -15 16 0
-19 15 16 0
12 11 15 0
12 11 -15 0
12 -11 15 0
-12 11 15 0
17 18 16 0
17 18 -16 0
17 -18 16 0
-17 18 16 0
17 20 13 0
17 20 -13 0
17 -20 13 0
-17 20 13 0
16 13 11 0
16 13 -11 0
16 -13 11 0
-16 13 11 0
11 12 16 0
11 12 -16 0
11 -12 16 0
-11 12 16 0
14 11 15 0
14 11 -15 0
14 -11 15 0
-14 11 15 0
12 18 20 0
12 18 -20 0
12 -18 20 0
-12 18 20 0
17 15 16 0
17 15 -16 0
17 -15 16 0
-17 15 16 0
11 12 20 0
11 12 -20 0
11 -12 20 0
-11 12 20 0
15 16 20 0
15 16 -20 0
15 -16 20 0
-15 16 20 0
18 12 20 0
18 12 -20 0
18 -12 20 0
-18 12 20 0
18 15 17 0
18 15 -17 0
18 -15 17 0
-18 15 17 0
12 17 15 0
12 17 -15 0
12 -17 15 0
-12 17 15 0
12 13 20 0
12 13 -20 0
12 -13 20 0
-12 13 20 0
12 17 13 0
12 17 -13 0
12 -17 13 0
-12 17 13 0
17 15 18 0
17 15 -18 0
17 -15 18 0
-17 15 18 0
18 12 17 0
18 12 -17 0
18 -12 17 0
-18 12 17 0
11 14 12 0
11 14 -12 0
11 -14 12 0
-11 14 12 0
16 14 11 0
16 14 -11 0
16 -14 11 0
-16 14 11 0
15 13 17 0
15 13 -17 0
15 -13 17 0
-15 13 17 0
14 20 11 0
14 20 -11 0
14 -20 11 0
-14 20 11 0
16 17 13 0
16 17 -13 0
16 -17 13 0
-16 17 13 0
14 13 16 0
14 13 -16 0
14 -13 16 0
-14 13 16 0
14 15 20 0
14 15 -20 0
14 -15 20 0
-14 15 20 0
18 19 16 0
18 19 -16 0
18 -19 16 0
-18 19 16 0
17 12 13 0
17 12 -13 0
17 -12 13 0
-17 12 13 0
27 25 22 0
27 25 -22 0
27 -25 22 0
-27 25 22 0
27 21 29 0
27 21 -29 0
27 -21 29 0
-27 21 29 0
22 28 25 0
22 28 -25 0
22 -28 25 0
-22 28 25 0
28 24 27 0
28 24 -27 0
28 -24 27 0
-28 24 27 0
30 27 21 0
30 27 -21 0
30 -27 21 0
-30 27 21 0
21 28 23 0
21 28 -23 0
21 -28 23 0
-21 28 23 0
30 27 24 0
30 27 -24 0
30 -27 24 0
-30 27 24 0
28 24 27 0
28 24 -27 0
28 -24 27 0
-28 24 27 0
22 28 24 0
22 28 -24 0
22 -28 24 0
-22 28 24 0
24 29 28 0
24 29 -28 0
24 -29 28 0
-24 29 28 0
22 26 25 0
22 26 -25 0
22 -26 25 0
-22 26 25 0
25 24 26 0
25 24 -26 0
25 -24 26 0
-25 24 26 0
24 21 23 0
24 21 -23 0
24 -21 23 0
-24 21 23 0
21 22 23 0
21 22 -23 0
21 -22 23 0
-21 22 23 0
26 28 23 0
26 28 -23 0
26 -28 23 0
-26 28 23 0
29 30 22 0
29 30 -22 0
29 -30 22 0
-29 30 22 0
26 25 24 0
26 25 -24 0
26 -25 24 0
-26 25 24 0
24 25 26 0
24 25 -26 0
24 -25 26 0
-24 25 26 0
28 29 22 0
28 29 -22 0
28 -29 22 0
-28 29 22 0
26 27 25 0
26 27 -25 0
26 -27 25 0
-26 27 25 0
22 24 21 0
22 24 -21 0
22 -24 21 0
-22 24 21 0
23 21 22 0
23 21 -22 0
23 -21 22 0
-23 21 22 0
22 25 30 0
22 25 -30 0
22 -25 30 0
-22 25 30 0
27 22 29 0
27 22 -29 0
27 -22 29 0
-27 22 29 0
26 28 25 0
26 28 -25 0
26 -28 25 0
-26 28 25 0
28 22 26 0
28 22 -26 0
28 -22 26 0
-28 22 26 0
21 28 27 0
21 28 -27 0
21 -28 27 0
-21 28 27 0
21 28 23 0
21 28 -23 0
21 -28 23 0
-21 28 23 0
22 26 29 0
22 26 -29 0
22 -26 29 0
-22 26 29 0
21 22 29 0
21 22 -29 0
21 -22 29 0
-21 22 29 0
24 29 27 0
24 29 -27 0
24 -29 27 0
-24 29 27 0
25 29 22 0
25 29 -22 0
25 -29 22 0
-25 29 22 0
25 27 22 0
25 27 -22 0
25 -27 22 0
-25 27 22 0
21 26 27 0
21 26 -27 0
21 -26 27 0
-21 26 27 0
24 21 30 0
24 21 -30 0
24 -21 30 0
-24 21 30 0
26 23 24 0
26 23 -24 0
26 -23 24 0
-26 23 24 0
22 21 28 0
22 21 -28 0
22 -21 28 0
-22 21 28 0
29 25 22 0
29 25 -22 0
29 -25 22 0
-29 25 22 0
24 30 26 0
24 30 -26 0
24 -30 26 0
-24 30 26 0
30 24 27 0
30 24 -27 0
30 -24 27 0
-30 24 27 0
31 36 37 0
31 36 -37 0
31 -36 37 0
-31 36 37 0
32 37 31 0
32 37 -31 0
32 -37 31 0
-32 37 31 0
35 31 33 0
35 31 -33 0
35 -31 33 0
-35 31 33 0
35 34 36 0
35 34 -36 0
35 -34 36 0
-35 34 36 0
37 39 33 0
37 39 -33 0
37 -39 33 0
-37 39 33 0
34 36 38 0
34 36 -38 0
34 -36 38 0
-34 36 38 0
40 34 33 0
40 34 -33 0
40 -34 33 0
-40 34 33 0
31 35 38 0
31 35 -38 0
31 -35 38 0
-31 35 38 0
39 32 34 0
39 32 -34 0
39 -32 34 0
-39 32 34 0
34 40 37 0
34 40 -37 0
34 -40 37 0
-34 40 37 0
33 37 38 0
33 37 -38 0
33 -37 38 0
-33 37 38 0
35 37 32 0
35 37 -32 0
35 -37 32 0
-35 37 32 0
31 32 33 0
31 32 -33 0
31 -32 33 0
-31 32 33 0
35 32 34 0
35 32 -34 0
35 -32 34 0
-35 32 34 0
31 34 33 0
31 34 -33 0
31 -34 33 0
-31 34 33 0
37 32 38 0
37 32 -38 0
37 -32 38 0
-37 32 38 0
32 34 39 0
32 34 -39 0
32 -34 39 0
-32 34 39 0
34 32 38 0
34 32 -38 0
34 -32 38 0
-34 32 38 0
38 40 33 0
38 40 -33 0
38 -40 33 0
-38 40 33 0
34 40 36 0
34 40 -36 0
34 -40 36 0
-34 40 36 0
32 39 36 0
32 39 -36 0
32 -39 36 0
-32 39 36 0
38 36 33 0
38 36 -33 0
38 -36 33 0
-38 36 33 0
38 39 32 0
38 39 -32 0
38 -39 32 0
-38 39 32 0
37 33 32 0
37 33 -32 0
37 -33 32 0
-37 33 32 0
37 34 36 0
37 34 -36 0
37 -34 36 0
-37 34 36 0
33 39 38 0
33 39 -38 0
33 -39 38 0
-33 39 38 0
40 36 33 0
40 36 -33 0
40 -36 33 0
-40 36 33 0
40 36 34 0
40 36 -34 0
40 -36 34 0
-40 36 34 0
37 34 32 0
37 34 -32 0
37 -34 32 0
-37 34 32 0
39 37 38 0
39 37 -38 0
39 -37 38 0
-39 37 38 0
31 32 33 0
31 32 -33 0
31 -32 33 0
-31 32 33 0
36 39 34 0
36 39 -34 0
36 -39 34 0
-36 39 34 0
39 38 40 0
39 38 -40 0
39 -38 40 0
-39 38 40 0
35 32 37 0
35 32 -37 0
35 -32 37 0
-35 32 37 0
34 35 32 0
34 35 -32 0
34 -35 32 0
-34 35 32 0
35 34 36 0
35 34 -36 0
35 -34 36 0
-35 34 36 0
40 33 32 0
40 33 -32 0
40 -33 32 0
-40 33 32 0
31 35 36 0
31 35 -36 0
31 -35 36 0
-31 35 36 0
38 33 37 0
38 33 -37 0
38 -33 37 0
-38 33 37 0
33 38 36 0
33 38 -36 0
33 -38 36 0
-33 38 36 0
